161
1000
383
471
697
662
328
456
102
120
599
33
17
518
100
204
792
74
315
894
606
555
178
836
323
26
403
614
62
427
413
338
607
266
502
161
241
184
595
395
40
362
401
292
76
163
45
550
37
617
263
69
605
462
379
204
17
46
573
796
326
164
41
38
602
85
466
165
478
264
78
298
549
208
568
201
756
149
355
190
835
520
18
672
2
211
531
328
947
404
37
515
683
167
685
340
799
647
93
122
398
87
53
273
221
498
597
152
185
394
918
201
596
231
358
401
316
884
128
506
82
55
462
333
522
437
438
83
796
340
738
1
304
87
92
372
619
998
671
450
429
672
262
367
114
106
988
329
261
673
349
538
393
12
303
915
480
1000
106
364
293
395
343
